NAME: generated_12_sym_1_20_UniformDistrib_noSparse.tsp
TYPE: TSP
COMMENT: Test case generated with custom generator!
DIMENSION: 12
EDGE_WEIGHT_TYPE: EXPLICIT
EDGE_WEIGHT_FORMAT: FULL_MATRIX
DISPLAY_DATA_TYPE: TWOD_DISPLAY
EDGE_WEIGHT_SECTION
0 15 9 5 2 12 19 10 5 5 9 16 
15 0 19 20 5 5 20 10 13 14 11 19 
9 19 0 18 12 16 13 17 9 11 15 2 
5 20 18 0 20 10 13 7 20 14 13 6 
2 5 12 20 0 7 9 6 11 16 15 18 
12 5 16 10 7 0 12 9 4 19 7 18 
19 20 13 13 9 12 0 2 9 6 6 16 
10 10 17 7 6 9 2 0 2 14 12 7 
5 13 9 20 11 4 9 2 0 19 11 19 
5 14 11 14 16 19 6 14 19 0 1 19 
9 11 15 13 15 7 6 12 11 1 0 3 
16 19 2 6 18 18 16 7 19 19 3 0 
